c preprocessed version of pigs, 47 vertices, 134 edges
p td 47 134
1 0
22 0
32 0
1 2
1 21
1 22
23 1
3 2
22 2
33 2
4 3
33 3
4 5
12 4
5 6
11 5
7 6
10 6
38 6
11 6
8 7
38 7
34 7
9 8
28 8
10 9
29 9
11 10
10 40
29 10
11 12
11 13
11 37
11 40
11 41
11 34
11 33
11 32
31 11
13 12
31 12
13 14
13 41
13 34
14 15
14 40
14 41
16 15
39 15
16 17
16 39
18 17
39 17
18 19
20 18
20 19
19 21
26 19
22 21
26 21
23 22
23 24
25 24
25 26
27 25
25 35
27 26
28 27
28 29
28 30
30 29
30 31
31 32
32 33
34 33
35 36
37 36
36 38
38 37
40 41
42 20
42 24
42 43
42 27
42 25
42 26
42 44
42 45
43 11
43 24
43 23
43 27
43 28
43 44
43 45
44 46
44 11
44 14
44 24
44 37
44 40
44 31
44 30
44 45
45 46
45 28
45 30
45 29
45 31
45 0
45 3
45 4
45 5
45 8
45 9
45 11
45 14
45 33
45 32
45 15
45 17
45 18
45 35
45 20
45 37
45 39
45 27
45 25
46 42
46 43
46 16
46 35
46 36
46 39
